Problem:    Pacho
Rows:       56
Columns:    55 (55 integer, 30 binary)
Non-zeros:  150
Status:     INTEGER OPTIMAL
Objective:  Z = 80 (MINimum)

   No.   Row name        Activity     Lower bound   Upper bound
------ ------------    ------------- ------------- -------------
     1 Z                          80                             
     2 rest1[1,1]                  0                          -0 
     3 rest1[1,2]                 -1                          -0 
     4 rest1[1,3]                 -1                          -0 
     5 rest1[1,4]                  0                          -0 
     6 rest1[1,5]                  0                          -0 
     7 rest1[2,1]                 -1                          -0 
     8 rest1[2,2]                  0                          -0 
     9 rest1[2,3]                 -1                          -0 
    10 rest1[2,4]                 -1                          -0 
    11 rest1[2,5]                 -1                          -0 
    12 rest1[3,1]                 -1                          -0 
    13 rest1[3,2]                 -1                          -0 
    14 rest1[3,3]                  0                          -0 
    15 rest1[3,4]                 -1                          -0 
    16 rest1[3,5]                 -1                          -0 
    17 rest1[4,1]                  0                          -0 
    18 rest1[4,2]                  0                          -0 
    19 rest1[4,3]                  0                          -0 
    20 rest1[4,4]                  0                          -0 
    21 rest1[4,5]                  0                          -0 
    22 rest1[5,1]                  0                          -0 
    23 rest1[5,2]                  0                          -0 
    24 rest1[5,3]                  0                          -0 
    25 rest1[5,4]                  0                          -0 
    26 rest1[5,5]                  0                          -0 
    27 rest2[1]                    1             1             = 
    28 rest2[2]                    1             1             = 
    29 rest2[3]                    1             1             = 
    30 rest2[4]                    1             1             = 
    31 rest2[5]                    1             1             = 
    32 rest4[1,1]                  0            -0               
    33 rest4[1,2]                  0            -0               
    34 rest4[1,3]                  0            -0               
    35 rest4[1,4]                  0            -0               
    36 rest4[1,5]                  0            -0               
    37 rest4[2,1]                  0            -0               
    38 rest4[2,2]                  0            -0               
    39 rest4[2,3]                  0            -0               
    40 rest4[2,4]                  0            -0               
    41 rest4[2,5]                  0            -0               
    42 rest4[3,1]                  0            -0               
    43 rest4[3,2]                  0            -0               
    44 rest4[3,3]                  0            -0               
    45 rest4[3,4]                  0            -0               
    46 rest4[3,5]                  0            -0               
    47 rest4[4,1]                  0            -0               
    48 rest4[4,2]                  0            -0               
    49 rest4[4,3]                  0            -0               
    50 rest4[4,4]                  0            -0               
    51 rest4[4,5]                  0            -0               
    52 rest4[5,1]                  0            -0               
    53 rest4[5,2]                  0            -0               
    54 rest4[5,3]                  0            -0               
    55 rest4[5,4]                  0            -0               
    56 rest4[5,5]                  0            -0               

   No. Column name       Activity     Lower bound   Upper bound
------ ------------    ------------- ------------- -------------
     1 x[1]         *              1             0             1 
     2 x[2]         *              1             0             1 
     3 x[3]         *              1             0             1 
     4 x[4]         *              0             0             1 
     5 x[5]         *              0             0             1 
     6 y[1,1]       *              1             0             1 
     7 y[1,2]       *              0             0             1 
     8 y[1,3]       *              0             0             1 
     9 y[1,4]       *              1             0             1 
    10 y[1,5]       *              1             0             1 
    11 y[2,1]       *              0             0             1 
    12 y[2,2]       *              1             0             1 
    13 y[2,3]       *              0             0             1 
    14 y[2,4]       *              0             0             1 
    15 y[2,5]       *              0             0             1 
    16 y[3,1]       *              0             0             1 
    17 y[3,2]       *              0             0             1 
    18 y[3,3]       *              1             0             1 
    19 y[3,4]       *              0             0             1 
    20 y[3,5]       *              0             0             1 
    21 y[4,1]       *              0             0             1 
    22 y[4,2]       *              0             0             1 
    23 y[4,3]       *              0             0             1 
    24 y[4,4]       *              0             0             1 
    25 y[4,5]       *              0             0             1 
    26 y[5,1]       *              0             0             1 
    27 y[5,2]       *              0             0             1 
    28 y[5,3]       *              0             0             1 
    29 y[5,4]       *              0             0             1 
    30 y[5,5]       *              0             0             1 
    31 z[1,1]       *             12                             
    32 z[1,2]       *              0                             
    33 z[1,3]       *              0                             
    34 z[1,4]       *             11                             
    35 z[1,5]       *             10                             
    36 z[2,1]       *              0                             
    37 z[2,2]       *             13                             
    38 z[2,3]       *              0                             
    39 z[2,4]       *              0                             
    40 z[2,5]       *              0                             
    41 z[3,1]       *              0                             
    42 z[3,2]       *              0                             
    43 z[3,3]       *             15                             
    44 z[3,4]       *              0                             
    45 z[3,5]       *              0                             
    46 z[4,1]       *              0                             
    47 z[4,2]       *              0                             
    48 z[4,3]       *              0                             
    49 z[4,4]       *              0                             
    50 z[4,5]       *              0                             
    51 z[5,1]       *              0                             
    52 z[5,2]       *              0                             
    53 z[5,3]       *              0                             
    54 z[5,4]       *              0                             
    55 z[5,5]       *              0                             

Integer feasibility conditions:

KKT.PE: max.abs.err = 0.00e+00 on row 0
        max.rel.err = 0.00e+00 on row 0
        High quality

KKT.PB: max.abs.err = 0.00e+00 on row 0
        max.rel.err = 0.00e+00 on row 0
        High quality

End of output
